
******************************************************************************
This program contains Ipopt, a library for large-scale nonlinear optimization.
 Ipopt is released as open source code under the Eclipse Public License (EPL).
         For more information visit http://projects.coin-or.org/Ipopt
******************************************************************************

This is Ipopt version 3.12.6, running with linear solver ma57.

Number of nonzeros in equality constraint Jacobian...:        0
Number of nonzeros in inequality constraint Jacobian.:        0
Number of nonzeros in Lagrangian Hessian.............:        6

Total number of variables............................:        3
                     variables with only lower bounds:        1
                variables with lower and upper bounds:        0
                     variables with only upper bounds:        0
Total number of equality constraints.................:        0
Total number of inequality constraints...............:        0
        inequality constraints with only lower bounds:        0
   inequality constraints with lower and upper bounds:        0
        inequality constraints with only upper bounds:        0

iter    objective    inf_pr   inf_du lg(mu)  ||d||  lg(rg) alpha_du alpha_pr  ls
   0  9.4214321e+03 0.00e+00 1.00e+02  -1.0 0.00e+00    -  0.00e+00 0.00e+00   0
   1  9.4171600e+03 0.00e+00 1.00e+02  -1.0 1.00e-02   4.0 1.00e+00 1.00e+00f  1
   2  9.4040686e+03 0.00e+00 1.01e+02  -1.0 3.03e-02   3.5 1.00e+00 1.00e+00f  1
   3  9.3546415e+03 0.00e+00 1.11e+02  -1.0 1.00e-01   3.0 1.00e+00 1.00e+00f  1
   4  6.4060216e+02 0.00e+00 7.61e+02  -1.0 2.94e+00   2.6 5.84e-01 5.00e-01f  2
   5  2.9901299e+02 0.00e+00 7.51e+02  -1.0 2.21e-01    -  1.00e+00 1.00e+00f  1
   6  1.7679429e+01 0.00e+00 1.50e+02  -1.0 6.49e-02   3.0 1.00e+00 1.00e+00f  1
   7  3.4713930e+00 0.00e+00 1.22e+01  -1.0 2.02e-02   2.5 1.00e+00 1.00e+00f  1
   8  3.3102011e+00 0.00e+00 1.06e+00  -1.0 9.71e-03   2.0 1.00e+00 1.00e+00f  1
   9  3.1143639e+00 0.00e+00 1.60e+00  -1.0 2.97e-02   1.6 1.00e+00 1.00e+00f  1
iter    objective    inf_pr   inf_du lg(mu)  ||d||  lg(rg) alpha_du alpha_pr  ls
  10  2.6245385e+00 0.00e+00 1.12e+01  -1.0 7.56e-01    -  1.00e+00 1.25e-01f  4
  11  2.0315175e+00 0.00e+00 2.62e+01  -1.0 1.80e-01    -  1.00e+00 1.00e+00f  1
  12  1.2984077e+00 0.00e+00 4.49e+00  -1.0 8.85e-02    -  1.00e+00 1.00e+00f  1
  13  9.5239192e-01 0.00e+00 1.53e+01  -1.0 2.73e-01    -  1.00e+00 5.00e-01f  2
  14  5.7142308e-01 0.00e+00 7.28e+00  -1.0 1.14e-01    -  1.00e+00 1.00e+00f  1
  15  3.4938530e-01 0.00e+00 1.49e+01  -1.0 1.64e-01    -  1.00e+00 1.00e+00f  1
  16  1.5590013e-01 0.00e+00 2.55e+00  -1.0 7.69e-02    -  1.00e+00 1.00e+00f  1
  17  9.6695085e-02 0.00e+00 1.27e+01  -1.0 1.66e-01    -  1.00e+00 1.00e+00f  1
  18  1.6667785e-02 0.00e+00 3.23e-01  -1.0 3.38e-02    -  1.00e+00 1.00e+00f  1
  19  5.2783955e-03 0.00e+00 3.51e+00  -1.7 9.57e-02    -  1.00e+00 1.00e+00f  1
iter    objective    inf_pr   inf_du lg(mu)  ||d||  lg(rg) alpha_du alpha_pr  ls
  20  9.8271256e-05 0.00e+00 1.63e-02  -1.7 7.40e-03    -  1.00e+00 1.00e+00f  1
  21  2.6728636e-05 0.00e+00 1.61e-01  -3.8 1.39e-02    -  1.00e+00 1.00e+00f  1
  22  1.5856437e-05 0.00e+00 1.88e-03  -3.8 1.15e-03    -  1.00e+00 1.00e+00f  1
  23  1.5013458e-05 0.00e+00 2.47e-02  -3.8 6.61e-02    -  1.00e+00 6.25e-02f  5
  24  1.4902397e-05 0.00e+00 6.87e-02  -3.8 7.14e-03    -  1.00e+00 1.00e+00f  1
  25  1.2396409e-05 0.00e+00 8.55e-03  -3.8 2.50e-03    -  1.00e+00 1.00e+00f  1
  26  1.1788155e-05 0.00e+00 3.40e-02  -3.8 1.81e-02    -  1.00e+00 2.50e-01f  3
  27  1.0643652e-05 0.00e+00 3.09e-02  -3.8 4.77e-03    -  1.00e+00 1.00e+00f  1
  28  9.6811120e-06 0.00e+00 3.49e-02  -3.8 5.06e-03    -  1.00e+00 1.00e+00f  1
  29  8.5777557e-06 0.00e+00 2.56e-02  -3.8 4.33e-03    -  1.00e+00 1.00e+00f  1
iter    objective    inf_pr   inf_du lg(mu)  ||d||  lg(rg) alpha_du alpha_pr  ls
  30  8.0238364e-06 0.00e+00 4.37e-02  -3.8 5.65e-03    -  1.00e+00 1.00e+00f  1
  31  6.7345171e-06 0.00e+00 1.43e-02  -3.8 3.22e-03    -  1.00e+00 1.00e+00f  1
  32  6.4084132e-06 0.00e+00 3.62e-02  -3.8 9.20e-03    -  1.00e+00 5.00e-01f  2
  33  5.4121584e-06 0.00e+00 1.83e-02  -3.8 3.63e-03    -  1.00e+00 1.00e+00f  1
  34  5.9798172e-06 0.00e+00 6.42e-02  -3.8 6.82e-03    -  1.00e+00 1.00e+00f  1
  35  3.9967379e-06 0.00e+00 5.02e-03  -3.8 1.89e-03    -  1.00e+00 1.00e+00f  1
  36  3.9715563e-06 0.00e+00 3.94e-02  -3.8 2.03e-02    -  1.00e+00 2.50e-01f  3
  37  3.0225743e-06 0.00e+00 1.15e-02  -3.8 2.87e-03    -  1.00e+00 1.00e+00f  1
  38  2.9468986e-06 0.00e+00 3.42e-02  -3.8 9.04e-03    -  1.00e+00 5.00e-01f  2
  39  2.2044419e-06 0.00e+00 1.31e-02  -3.8 3.06e-03    -  1.00e+00 1.00e+00f  1
iter    objective    inf_pr   inf_du lg(mu)  ||d||  lg(rg) alpha_du alpha_pr  ls
  40  2.0534259e-06 0.00e+00 2.57e-02  -3.8 7.39e-03    -  1.00e+00 5.00e-01f  2
  41  1.6097696e-06 0.00e+00 1.99e-02  -3.8 3.76e-03    -  1.00e+00 1.00e+00f  1
  42  1.4654843e-06 0.00e+00 3.00e-02  -3.8 4.62e-03    -  1.00e+00 1.00e+00f  1
  43  9.4270824e-07 0.00e+00 1.23e-02  -3.8 2.94e-03    -  1.00e+00 1.00e+00f  1
  44  8.7699299e-07 0.00e+00 2.18e-02  -3.8 6.66e-03    -  1.00e+00 5.00e-01f  2
  45  6.4146290e-07 0.00e+00 1.95e-02  -3.8 3.71e-03    -  1.00e+00 1.00e+00f  1
  46  5.1206490e-07 0.00e+00 2.18e-02  -3.8 3.92e-03    -  1.00e+00 1.00e+00f  1
  47  2.9952709e-07 0.00e+00 1.59e-02  -3.8 3.34e-03    -  1.00e+00 1.00e+00f  1
  48  3.8464014e-07 0.00e+00 2.65e-02  -3.8 4.31e-03    -  1.00e+00 1.00e+00f  1
  49  7.3179579e-08 0.00e+00 8.81e-03  -3.8 2.48e-03    -  1.00e+00 1.00e+00f  1
iter    objective    inf_pr   inf_du lg(mu)  ||d||  lg(rg) alpha_du alpha_pr  ls
  50  1.8779209e-07 0.00e+00 2.04e-02  -3.8 6.70e-03    -  1.00e+00 5.00e-01f  2
  51  6.4202536e-08 0.00e+00 1.20e-02  -3.8 2.90e-03    -  1.00e+00 1.00e+00f  1
  52  4.1199343e-07 0.00e+00 2.94e-02  -3.8 4.53e-03    -  1.00e+00 1.00e+00f  1
  53  7.0732872e-08 0.00e+00 4.59e-03  -3.8 1.78e-03    -  1.00e+00 1.00e+00f  1
  54  6.8195416e-07 0.00e+00 3.42e-02  -3.8 9.42e-03    -  1.00e+00 5.00e-01f  2
  55  2.1657058e-07 0.00e+00 2.65e-03  -3.8 1.35e-03    -  1.00e+00 1.00e+00f  1
  56  4.5008025e-07 0.00e+00 1.65e-02  -3.8 1.27e-02    -  1.00e+00 2.50e-01f  3
  57  4.7014477e-07 0.00e+00 8.65e-03  -3.8 2.44e-03    -  1.00e+00 1.00e+00f  1
  58  9.4041435e-07 0.00e+00 2.54e-02  -3.8 4.19e-03    -  1.00e+00 1.00e+00f  1
  59  7.4098235e-07 0.00e+00 2.72e-03  -3.8 1.36e-03    -  1.00e+00 1.00e+00f  1
iter    objective    inf_pr   inf_du lg(mu)  ||d||  lg(rg) alpha_du alpha_pr  ls
  60  9.3199740e-07 0.00e+00 1.00e-02  -3.8 9.36e-03    -  1.00e+00 2.50e-01f  3
  61  1.1659156e-06 0.00e+00 1.26e-02  -3.8 2.94e-03    -  1.00e+00 1.00e+00f  1
  62  1.2846452e-06 0.00e+00 6.82e-03  -3.8 2.16e-03    -  1.00e+00 1.00e+00f  1
  63  1.6951290e-06 0.00e+00 1.76e-02  -3.8 3.47e-03    -  1.00e+00 1.00e+00f  1
  64  1.6765980e-06 0.00e+00 2.37e-03  -3.8 1.27e-03    -  1.00e+00 1.00e+00f  1
  65  2.1308784e-06 0.00e+00 1.74e-02  -3.8 6.65e-03    -  1.00e+00 5.00e-01f  2
  66  2.1038030e-06 0.00e+00 1.56e-03  -3.8 1.03e-03    -  1.00e+00 1.00e+00f  1
  67  2.3039399e-06 0.00e+00 5.70e-03  -3.8 7.03e-03    -  1.00e+00 2.50e-01f  3
  68  2.5920391e-06 0.00e+00 8.56e-03  -3.8 2.41e-03    -  1.00e+00 1.00e+00f  1
  69  2.7315854e-06 0.00e+00 3.04e-03  -3.8 1.44e-03    -  1.00e+00 1.00e+00f  1
iter    objective    inf_pr   inf_du lg(mu)  ||d||  lg(rg) alpha_du alpha_pr  ls
  70  3.1860126e-06 0.00e+00 1.37e-02  -3.8 3.05e-03    -  1.00e+00 1.00e+00f  1
  71  3.1827079e-06 0.00e+00 5.87e-04  -3.8 6.28e-04    -  1.00e+00 1.00e+00f  1
  72  2.9270979e-06 0.00e+00 2.20e-02  -5.7 3.05e-02    -  1.00e+00 1.25e-01f  4
  73  2.4999088e-06 0.00e+00 5.46e-03  -5.7 1.93e-03    -  1.00e+00 1.00e+00f  1
  74  2.2826747e-06 0.00e+00 1.86e-02  -5.7 6.58e-03    -  1.00e+00 5.00e-01f  2
  75  1.9386545e-06 0.00e+00 5.88e-03  -5.7 2.01e-03    -  1.00e+00 1.00e+00f  1
  76  1.7467440e-06 0.00e+00 1.38e-02  -5.7 5.43e-03    -  1.00e+00 5.00e-01f  2
  77  1.4811488e-06 0.00e+00 8.13e-03  -5.7 2.36e-03    -  1.00e+00 1.00e+00f  1
  78  1.3136598e-06 0.00e+00 1.86e-02  -5.7 3.57e-03    -  1.00e+00 1.00e+00f  1
  79  1.0535710e-06 0.00e+00 3.21e-03  -5.7 1.49e-03    -  1.00e+00 1.00e+00f  1
iter    objective    inf_pr   inf_du lg(mu)  ||d||  lg(rg) alpha_du alpha_pr  ls
  80  9.5510152e-07 0.00e+00 1.73e-02  -5.7 6.57e-03    -  1.00e+00 5.00e-01f  2
  81  7.4138053e-07 0.00e+00 2.59e-03  -5.7 1.34e-03    -  1.00e+00 1.00e+00f  1
  82  6.7296857e-07 0.00e+00 1.64e-02  -5.7 6.45e-03    -  1.00e+00 5.00e-01f  2
  83  4.9637899e-07 0.00e+00 1.91e-03  -5.7 1.15e-03    -  1.00e+00 1.00e+00f  1
  84  4.6169049e-07 0.00e+00 1.63e-02  -5.7 6.50e-03    -  1.00e+00 5.00e-01f  2
  85  3.0916302e-07 0.00e+00 1.20e-03  -5.7 9.12e-04    -  1.00e+00 1.00e+00f  1
  86  2.5658254e-07 0.00e+00 5.01e-03  -5.7 6.75e-03    -  1.00e+00 2.50e-01f  3
  87  1.9556550e-07 0.00e+00 6.92e-03  -5.7 2.19e-03    -  1.00e+00 1.00e+00f  1
  88  1.3923398e-07 0.00e+00 2.79e-03  -5.7 1.39e-03    -  1.00e+00 1.00e+00f  1
  89  1.1556851e-07 0.00e+00 9.33e-03  -5.7 2.54e-03    -  1.00e+00 1.00e+00f  1
iter    objective    inf_pr   inf_du lg(mu)  ||d||  lg(rg) alpha_du alpha_pr  ls
  90  6.4731085e-08 0.00e+00 6.80e-04  -5.7 6.89e-04    -  1.00e+00 1.00e+00f  1
  91  4.8435939e-08 0.00e+00 5.61e-03  -5.7 3.83e-03    -  1.00e+00 5.00e-01f  2
  92  2.6467123e-08 0.00e+00 6.73e-04  -5.7 6.85e-04    -  1.00e+00 1.00e+00f  1
  93  1.6924922e-08 0.00e+00 2.23e-03  -5.7 2.30e-03    -  1.00e+00 5.00e-01f  2
  94  8.8877756e-09 0.00e+00 1.00e-03  -5.7 8.35e-04    -  1.00e+00 1.00e+00f  1
  95  4.1555126e-09 0.00e+00 1.25e-03  -5.7 9.34e-04    -  1.00e+00 1.00e+00f  1
  96  1.9851002e-09 0.00e+00 2.48e-04  -5.7 4.16e-04    -  1.00e+00 1.00e+00f  1
  97  8.9828685e-10 0.00e+00 2.50e-04  -5.7 4.17e-04    -  1.00e+00 1.00e+00f  1
  98  7.0688986e-10 0.00e+00 9.86e-06  -5.7 8.30e-05    -  1.00e+00 1.00e+00f  1
  99  2.7480898e-10 0.00e+00 7.95e-04  -8.6 7.44e-04    -  1.00e+00 1.00e+00f  1
iter    objective    inf_pr   inf_du lg(mu)  ||d||  lg(rg) alpha_du alpha_pr  ls
 100  2.2919014e-14 0.00e+00 2.35e-08  -8.6 4.22e-06    -  1.00e+00 1.00e+00f  1
 101  1.6262288e-16 0.00e+00 2.21e-08  -9.0 3.93e-06    -  1.00e+00 1.00e+00f  1
 102  1.6232314e-16 0.00e+00 1.31e-12  -9.0 1.01e-10    -  1.00e+00 1.00e+00f  1

Number of Iterations....: 102

                                   (scaled)                 (unscaled)
Objective...............:   3.8044486543725872e-17    1.6232314254217849e-16
Dual infeasibility......:   1.3142580807838890e-12    5.6075011431446251e-12
Constraint violation....:   0.0000000000000000e+00    0.0000000000000000e+00
Complementarity.........:   9.0909090909090910e-10    3.8787878777272734e-09
Overall NLP error.......:   9.0909090909090910e-10    3.8787878777272734e-09


Number of objective function evaluations             = 241
Number of objective gradient evaluations             = 103
Number of equality constraint evaluations            = 0
Number of inequality constraint evaluations          = 0
Number of equality constraint Jacobian evaluations   = 0
Number of inequality constraint Jacobian evaluations = 0
Number of Lagrangian Hessian evaluations             = 102
Total CPU secs in IPOPT (w/o function evaluations)   =      0.027
Total CPU secs in NLP function evaluations           =      0.003

EXIT: Optimal Solution Found.

 ** SUBROUTINE CUTEST_csetup: Warning. The problem has no general constraints. 
 ** Other tools may be preferable ** 

************************ CUTEst statistics ************************


 Package used            :  IPOPT
 Problem                 :  PFIT2LS   
 # variables             =               3
 # constraints           =               0
 # objective functions   =        0.3450000E+03
 # objective gradients   =        0.1040000E+03
 # objective Hessians    =        0.1030000E+03
 # Hessian-vector prdct  =        0.0000000E+00
 # constraints functions =        0.0000000E+00
 # constraints gradients =        0.0000000E+00
 # constraints Hessians  =        0.0000000E+00
 Exit code               =               0
 Final f                 =   0.1623231E-15
 Set up time             =            0.00 seconds
 Solve time              =            0.12 seconds


******************************************************************

System Time =       0.0309999995 s.
